1 of 1 MIP starts provided solutions.
MIP start 'm1' defined initial solution with objective 102149.0000.
Tried aggregator 1 time.
MIP Presolve eliminated 0 rows and 1 columns.
Reduced MIP has 90100 rows, 60300 columns, and 18210000 nonzeros.
Reduced MIP has 30000 binaries, 0 generals, 0 SOSs, and 0 indicators.
Presolve time = 9.60 sec. (4732.59 ticks)
Probing time = 0.33 sec. (175.29 ticks)
Tried aggregator 1 time.
Reduced MIP has 90100 rows, 60300 columns, and 18210000 nonzeros.
Reduced MIP has 30000 binaries, 0 generals, 0 SOSs, and 0 indicators.
Presolve time = 12.16 sec. (5508.54 ticks)
Probing time = 0.31 sec. (175.27 ticks)
Clique table members: 100.
MIP emphasis: balance optimality and feasibility.
MIP search method: dynamic search.
Parallel mode: none, using 1 thread.
Root relaxation solution time = 25.01 sec. (17697.05 ticks)

        Nodes                                         Cuts/
   Node  Left     Objective  IInf  Best Integer    Best Bound    ItCnt     Gap

*     0+    0                       102149.0000   2.30531e+07    17633     --- 
      0     0   102153.9480    12   102149.0000   102153.9480    17633    0.00%

Root node processing (before b&c):
  Real time             =   71.38 sec. (58212.23 ticks)
Sequential b&c:
  Real time             =    0.00 sec. (0.00 ticks)
                          ------------
Total (root+branch&cut) =   71.38 sec. (58212.23 ticks)
